0000000000000000
0000000000000000
0000000000000000
0001111111111111
0001111111111111
0000000000111000
0000000000111000
0000000000111000
0000000000111000
0000000000111000
0000000000111000
0000000000111000
0000000000111000
0000000000111000
0000000000111000
0000000000111000
